NAME :  IRP
COMMENT : 
TYPE :  CVRP
DIMENSION : 	26
EDGE_WEIGHT_TYPE : 	EUC_2D
CAPACITY : 	1971
NODE_COORD_SECTION
1	436	498
2	124	8
3	320	11
4	277	1
5	272	16
6	280	87
7	498	44
8	391	96
9	134	326
10	49	265
11	152	155
12	237	250
13	209	163
14	324	196
15	199	415
16	241	446
17	435	304
18	416	311
19	73	51
20	165	108
21	429	76
22	130	272
23	268	146
24	434	261
25	442	444
26	438	397
DEMAND_SECTION
1	0
2	10
3	76
4	30
5	144
6	68
7	48
8	168
9	70
10	83
11	64
12	23
13	37
14	24
15	48
16	36
17	166
18	198
19	87
20	98
21	23
22	81
23	249
24	98
25	20
26	102
DEPOT_SECTION
	1
	-1
EOF
